language ESSENCE' 1.0
$ minion Nodes: 1
$ minion TotalTime: 0.000718
$ Savile Row TotalTime: 0.26
letting pain_tuple1 be [5, 5;int(1..2)]
letting pain_tuple2 be [8, 8;int(1..2)]
letting pain_tuple3 be [9, 9;int(1..2)]
letting pain_tuple4 be [10, 10;int(1..2)]
letting pain_tuple5 be [11, 11;int(1..2)]
letting pain_tuple6 be [12, 12;int(1..2)]
